qbf_easy_train/easy_5583_SAT.qdimacs
p cnf 24 60
a 3 11 6 0
e 1 2 4 5 7 8 9 10 12 13 14 15 16 17 18 19 20 21 22 23 24 0
3 1 0
3 -2 0
-1 2 -3 0
4 1 -5 0
-4 -1 -5 0
4 -1 5 0
-4 1 5 0
-2 -6 -7 0
2 6 -7 0
-2 6 7 0
2 -6 7 0
5 -7 -8 0
-5 7 -8 0
5 7 8 0
-5 -7 8 0
-10 5 0
-10 -9 0
-5 9 10 0
-11 -8 0
-11 -10 0
8 10 11 0
-12 3 0
-12 -11 0
-3 11 12 0
-4 13 -14 0
4 -13 -14 0
-4 -13 14 0
4 13 14 0
16 -5 0
16 15 0
5 -15 -16 0
17 -4 0
17 -16 0
4 16 -17 0
-2 -18 -19 0
2 18 -19 0
-2 18 19 0
2 -18 19 0
20 17 0
20 -19 0
-17 19 -20 0
-21 -14 0
-21 -20 0
14 20 21 0
-12 21 -22 0
12 -21 -22 0
-12 -21 22 0
12 21 22 0
-23 -15 0
-23 -13 0
15 13 23 0
-24 22 0
-24 -23 0
-22 23 24 0
-19 23 18 22 1 -20 0
-1 5 14 -15 20 -21 0
-1 -19 21 2 23 14 18 0
18 -15 4 14 -9 -17 -10 0
20 18 -17 -22 13 -12 0
24 0
