sat_easy_train/easy_5583_SAT.dimacs
p cnf 74 221
6 -4 0
6 -5 0
4 5 -6 0
7 -3 0
7 -6 0
3 6 -7 0
4 -8 -9 0
-4 8 -9 0
4 8 9 0
-4 -8 9 0
10 -7 0
10 -9 0
7 9 -10 0
11 2 0
11 -10 0
-2 10 -11 0
12 -1 0
12 -11 0
1 11 -12 0
17 15 0
17 16 0
-15 -16 -17 0
14 17 -18 0
-14 -17 -18 0
14 -17 18 0
-14 17 18 0
-19 -13 0
-19 18 0
13 -18 19 0
-21 -20 0
-21 -14 0
20 14 21 0
-23 -22 0
-23 14 0
22 -14 23 0
24 -21 0
24 23 0
21 -23 -24 0
-25 24 0
-25 -15 0
-24 15 25 0
-26 -1 0
-26 -25 0
1 25 26 0
-27 -19 0
-27 -26 0
19 26 27 0
28 12 0
28 -27 0
-12 27 -28 0
29 13 -30 0
-29 -13 -30 0
29 -13 30 0
-29 13 30 0
-31 -10 0
-31 29 0
10 -29 31 0
32 30 0
32 31 0
-30 -31 -32 0
28 32 -33 0
-28 -32 -33 0
28 -32 33 0
-28 32 33 0
26 -34 -35 0
-26 34 -35 0
26 34 35 0
-26 -34 35 0
36 -33 0
36 -35 0
33 35 -36 0
-6 -2 -37 0
6 2 -37 0
-6 2 37 0
6 -2 37 0
38 -37 0
38 21 0
37 -21 -38 0
-39 38 0
-39 -23 0
-38 23 39 0
40 18 -41 0
-40 -18 -41 0
40 -18 41 0
-40 18 41 0
-42 -13 0
-42 -41 0
13 41 42 0
39 42 -43 0
-39 -42 -43 0
39 -42 43 0
-39 42 43 0
-44 24 0
-44 8 0
-24 -8 44 0
-45 44 0
-45 40 0
-44 -40 45 0
46 -43 0
46 45 0
43 -45 -46 0
-47 -14 0
-47 -5 0
14 5 47 0
48 47 0
48 10 0
-47 -10 -48 0
-48 49 0
48 49 0
3 7 -50 0
-3 -7 -50 0
3 -7 50 0
-3 7 50 0
-23 -40 -51 0
23 40 -51 0
-23 40 51 0
23 -40 51 0
-52 18 0
-52 -51 0
-18 51 52 0
-50 -52 -53 0
50 52 -53 0
-50 52 53 0
50 -52 53 0
54 -49 0
54 -53 0
49 53 -54 0
-55 25 0
-55 -41 0
-25 41 55 0
-56 -38 0
-56 3 0
38 -3 56 0
-57 55 0
-57 56 0
-55 -56 57 0
54 -57 -58 0
-54 57 -58 0
54 57 58 0
-54 -57 58 0
-59 46 0
-59 -58 0
-46 58 59 0
60 5 0
60 17 0
-5 -17 -60 0
60 -15 -61 0
-60 15 -61 0
60 15 61 0
-60 -15 61 0
24 20 -62 0
-24 -20 -62 0
24 -20 62 0
-24 20 62 0
-64 -10 0
-64 -63 0
10 63 64 0
65 -64 0
65 -37 0
64 37 -65 0
62 -65 -66 0
-62 65 -66 0
62 65 66 0
-62 -65 66 0
37 20 -67 0
-37 -20 -67 0
37 -20 67 0
-37 20 67 0
68 18 0
68 -22 0
-18 22 -68 0
20 68 -69 0
-20 -68 -69 0
20 -68 69 0
-20 68 69 0
70 67 0
70 69 0
-67 -69 -70 0
71 -66 0
71 70 0
66 -70 -71 0
61 -71 -72 0
-61 71 -72 0
61 71 72 0
-61 -71 72 0
73 -59 0
73 -72 0
59 72 -73 0
-74 -36 0
-74 -73 0
36 73 74 0
-66 -60 34 16 26 -33 0
-61 -54 68 0
-9 -12 -72 -23 69 0
17 -16 0
-50 -37 -6 0
43 66 -53 0
72 -51 40 -33 -66 0
10 7 23 20 0
-49 23 55 -12 47 5 0
65 -50 64 41 -63 53 0
-23 44 -37 48 62 0
-14 -35 -39 0
-14 30 -36 -9 0
-40 48 0
33 57 -3 54 27 -53 0
-4 13 20 -28 0
-39 7 -66 63 -72 -60 0
49 -39 15 46 0
-55 -23 47 -62 -33 -27 0
-37 -69 0
-8 -32 -73 7 19 0
12 18 -70 0
3 -56 0
-41 -72 -18 -42 -26 67 0
41 -11 -74 37 19 -55 0
11 -45 -41 66 54 -56 0
66 -12 64 -74 -24 0
22 -62 0
66 -16 0
74 0
